4
1 2
1 3
9 4
9 6
7
0 0
0 10
5 0
5 5
5 10
10 10
10 0
11 11
0 0 0 0 0 0 0 0 0 0 0
0 1 1 1 1 1 1 1 1 1 0
0 0 1 1 1 1 1 1 1 0 0
0 0 1 1 1 1 1 1 1 0 0
0 0 1 1 1 0 1 1 1 0 0
0 0 0 0 0 0 0 0 0 0 0
0 0 1 1 1 1 1 1 1 0 0
0 1 1 1 1 1 1 1 1 1 0
0 1 1 1 1 1 1 1 1 1 0
0 1 1 1 1 1 1 1 1 1 0
0 0 0 0 0 0 0 0 0 0 0
